NAME : TSP_INST.22141.tour
COMMENT : Length = 22141
COMMENT : Found by LKH [Keld Helsgaun] Sat Oct 18 14:36:39 2025
TYPE : TOUR
DIMENSION : 100
TOUR_SECTION
1
12
71
27
61
35
94
57
60
74
66
87
89
43
50
16
2
42
14
64
83
4
6
15
33
82
51
48
31
63
13
78
17
41
44
19
92
96
36
45
18
24
77
55
22
23
88
54
52
58
84
7
34
9
25
46
90
21
10
68
86
49
30
75
80
20
38
72
37
65
47
79
81
56
100
26
69
62
5
67
40
39
70
53
73
85
93
11
3
28
91
97
99
8
29
76
59
32
98
95
-1
EOF
